
Gurobi 11.0.3 (linux64) logging started Fri Nov 22 05:49:25 2024

Set parameter LogFile to value "/home/yihong/Coding/OR_SUC/SUC_results_bigM100000_thread4/case24_ieee_rts_theta0.1_epsilon0.05_gurobi_seed300000_num_gen100_N_WDR100_load_scaling_factor1_exact_T16quadra_cost.txt"
Set parameter TimeLimit to value 3600
Gurobi Optimizer version 11.0.3 build v11.0.3rc0 (linux64 - "Ubuntu 20.04.6 LTS")

CPU model: AMD EPYC 7532 32-Core Processor, instruction set [SSE2|AVX|AVX2]
Thread count: 64 physical cores, 128 logical processors, using up to 4 threads

Optimize a model with 38307 rows, 20041 columns and 883306 nonzeros
Model fingerprint: 0xfa1909d3
Model has 1600 quadratic constraints
Variable types: 18341 continuous, 1700 integer (1700 binary)
Coefficient statistics:
  Matrix range     [3e-04, 1e+05]
  QMatrix range    [2e-03, 8e-03]
  QLMatrix range   [6e-02, 6e+01]
  Objective range  [1e+00, 1e+00]
  Bounds range     [1e+00, 1e+00]
  RHS range        [1e+00, 1e+05]
Presolve removed 31349 rows and 8553 columns
Presolve time: 0.28s
Presolved: 6958 rows, 11488 columns, 38800 nonzeros
Presolved model has 1600 quadratic constraint(s)
Variable types: 9806 continuous, 1682 integer (1682 binary)

Root relaxation: objective 1.885116e+04, 5300 iterations, 0.13 seconds (0.18 work units)

    Nodes    |    Current Node    |     Objective Bounds      |     Work
 Expl Unexpl |  Obj  Depth IntInf | Incumbent    BestBd   Gap | It/Node Time

     0     0 18851.1622    0   27          - 18851.1622      -     -    0s
     0     0 196575.989    0  616          - 196575.989      -     -    0s
     0     0 196637.892    0  619          - 196637.892      -     -    0s
     0     0 385282.960    0  578          - 385282.960      -     -    1s
     0     0 385340.488    0  337          - 385340.488      -     -    1s
     0     0 385811.568    0  157          - 385811.568      -     -    1s
     0     0 385816.564    0  157          - 385816.564      -     -    1s
     0     0 385900.068    0  154          - 385900.068      -     -    1s
     0     0 385902.629    0  154          - 385902.629      -     -    1s
     0     2 385902.629    0  154          - 385902.629      -     -    1s
H  237   244                    386395.85215 386026.719  0.10%  13.4    2s
*  237   244              90    386395.85215 386026.719  0.10%  13.4    2s

Cutting planes:
  Gomory: 9
  Implied bound: 286
  MIR: 177
  Flow cover: 444
  RLT: 1

Explored 263 nodes (17699 simplex iterations) in 3.11 seconds (3.79 work units)
Thread count was 4 (of 128 available processors)

Solution count 2: 386396 386396 

Optimal solution found (tolerance 1.00e-03)
Warning: max constraint violation (2.8262e-07) exceeds tolerance
Best objective 3.863958521488e+05, best bound 3.860267191212e+05, gap 0.0955%
